;symbolic execution tree
(push)
(assert (le x0 java.lang.Object))
(check-sat)
(push)
(assert (le x1 java.lang.Object))
(check-sat)
(push)
(assert (le x2 java.lang.Object))
(check-sat)
(push)
(assert (le x3 java.lang.Object))
(check-sat)
(push)
(assert (le x4 java.lang.Object))
(check-sat)
(push)
(assert (le x5 java.lang.Object))
(check-sat)
(push)
(assert (le x6 java.lang.Object))
(check-sat)
(push)
(assert (le x7 java.lang.Object))
(check-sat)
(push)
(assert (= x4 java.lang.String))
(check-sat)
(push)
(assert (le x2 java.io.DataInputStream))
(check-sat)
(push)
(assert (le x5 java.util.zip.ZipEntry))
(check-sat)
(pop)
(push)
(assert (not (le x5 java.util.zip.ZipEntry)))
(check-sat)
(pop)
(push)
(assert (= x3 java.lang.StringBuffer))
(check-sat)
(push)
(assert (le x1 java.util.zip.ZipEntry))
(check-sat)
(pop)
(push)
(assert (not (le x1 java.util.zip.ZipEntry)))
(check-sat)
(push)
(assert (le x2 java.io.DataInputStream))
(check-sat)
(pop)
(push)
(assert (not (le x2 java.io.DataInputStream)))
(check-sat)
(pop)
(pop)
(push)
(assert (le x2 java.io.DataInputStream))
(check-sat)
(pop)
(push)
(assert (not (le x2 java.io.DataInputStream)))
(check-sat)
(pop)
(pop)
(push)
(assert (not (= x3 java.lang.StringBuffer)))
(check-sat)
(pop)
(pop)
(push)
(assert (not (le x2 java.io.DataInputStream)))
(check-sat)
(push)
(assert (le x2 java.io.DataInputStream))
(check-sat)
(pop)
(push)
(assert (not (le x2 java.io.DataInputStream)))
(check-sat)
(pop)
(pop)
(push)
(assert (= x4 java.lang.String))
(check-sat)
(pop)
(push)
(assert (not (= x4 java.lang.String)))
(check-sat)
(pop)
(push)
(assert (= x4 java.lang.String))
(check-sat)
(pop)
(push)
(assert (not (= x4 java.lang.String)))
(check-sat)
(pop)
(push)
(assert (= x1 java.lang.String))
(check-sat)
(push)
(assert (le x0 java.io.File))
(check-sat)
(pop)
(push)
(assert (not (le x0 java.io.File)))
(check-sat)
(push)
(assert (= x1 java.lang.String))
(check-sat)
(pop)
(push)
(assert (not (= x1 java.lang.String)))
(check-sat)
(pop)
(pop)
(push)
(assert (= x3 java.lang.String))
(check-sat)
(pop)
(push)
(assert (not (= x3 java.lang.String)))
(check-sat)
(pop)
(pop)
(push)
(assert (not (= x1 java.lang.String)))
(check-sat)
(push)
(assert (le x3 soot.coffi.CONSTANT_Utf8_info))
(check-sat)
(pop)
(push)
(assert (not (le x3 soot.coffi.CONSTANT_Utf8_info)))
(check-sat)
(push)
(assert (le x6 soot.util.HashChain_currencysign_Link))
(check-sat)
(pop)
(push)
(assert (not (le x6 soot.util.HashChain_currencysign_Link)))
(check-sat)
(pop)
(pop)
(push)
(assert (= x0 java.lang.String))
(check-sat)
(pop)
(push)
(assert (not (= x0 java.lang.String)))
(check-sat)
(pop)
(push)
(assert (le x5 soot.coffi.method_info))
(check-sat)
(pop)
(push)
(assert (not (le x5 soot.coffi.method_info)))
(check-sat)
(push)
(assert (= x4 java.lang.String))
(check-sat)
(pop)
(push)
(assert (not (= x4 java.lang.String)))
(check-sat)
(pop)
(pop)
(push)
(assert (= x4 java.lang.String))
(check-sat)
(pop)
(push)
(assert (not (= x4 java.lang.String)))
(check-sat)
(pop)
(pop)
(push)
(assert (= x5 java.lang.String))
(check-sat)
(push)
(assert (= x5 java.lang.String))
(check-sat)
(push)
(assert (= x7 java.lang.String))
(check-sat)
(pop)
(push)
(assert (not (= x7 java.lang.String)))
(check-sat)
(pop)
(pop)
(push)
(assert (not (= x5 java.lang.String)))
(check-sat)
(pop)
(push)
(assert (le x6 java.util.zip.ZipEntry))
(check-sat)
(push)
(assert (le x3 java.util.zip.ZipEntry))
(check-sat)
(pop)
(push)
(assert (not (le x3 java.util.zip.ZipEntry)))
(check-sat)
(pop)
(push)
(assert (= x3 java.lang.String))
(check-sat)
(pop)
(push)
(assert (not (= x3 java.lang.String)))
(check-sat)
(pop)
(pop)
(push)
(assert (not (le x6 java.util.zip.ZipEntry)))
(check-sat)
(push)
(assert (le x1 java.util.List))
(check-sat)
(pop)
(push)
(assert (not (le x1 java.util.List)))
(check-sat)
(pop)
(push)
(assert (= x1 java.lang.String))
(check-sat)
(pop)
(push)
(assert (not (= x1 java.lang.String)))
(check-sat)
(pop)
(push)
(assert (le x6 java.util.zip.ZipEntry))
(check-sat)
(pop)
(push)
(assert (not (le x6 java.util.zip.ZipEntry)))
(check-sat)
(push)
(assert (= x0 java.lang.String))
(check-sat)
(pop)
(push)
(assert (not (= x0 java.lang.String)))
(check-sat)
(pop)
(push)
(assert (le x1 java.util.zip.ZipEntry))
(check-sat)
(pop)
(push)
(assert (not (le x1 java.util.zip.ZipEntry)))
(check-sat)
(pop)
(pop)
(pop)
(pop)
(push)
(assert (not (= x5 java.lang.String)))
(check-sat)
(push)
(assert (= x5 java.lang.String))
(check-sat)
(pop)
(push)
(assert (not (= x5 java.lang.String)))
(check-sat)
(pop)
(push)
(assert (= x1 java.lang.StringBuffer))
(check-sat)
(pop)
(push)
(assert (not (= x1 java.lang.StringBuffer)))
(check-sat)
(pop)
(pop)
(push)
(assert (= x4 java.lang.String))
(check-sat)
(push)
(assert (le x5 java.io.File))
(check-sat)
(pop)
(push)
(assert (not (le x5 java.io.File)))
(check-sat)
(pop)
(push)
(assert (= x3 java.lang.String))
(check-sat)
(pop)
(push)
(assert (not (= x3 java.lang.String)))
(check-sat)
(pop)
(pop)
(push)
(assert (not (= x4 java.lang.String)))
(check-sat)
(pop)
(push)
(assert (= x3 java.lang.String))
(check-sat)
(push)
(assert (= x5 java.lang.String))
(check-sat)
(pop)
(push)
(assert (not (= x5 java.lang.String)))
(check-sat)
(pop)
(push)
(assert (= x5 java.lang.String))
(check-sat)
(pop)
(push)
(assert (not (= x5 java.lang.String)))
(check-sat)
(pop)
(push)
(assert (= x2 java.lang.String))
(check-sat)
(pop)
(push)
(assert (not (= x2 java.lang.String)))
(check-sat)
(push)
(assert (= x3 java.lang.String))
(check-sat)
(pop)
(push)
(assert (not (= x3 java.lang.String)))
(check-sat)
(pop)
(pop)
(push)
(assert (le x7 java.io.DataInputStream))
(check-sat)
(pop)
(push)
(assert (not (le x7 java.io.DataInputStream)))
(check-sat)
(push)
(assert (= x4 java.lang.String))
(check-sat)
(push)
(assert (= x2 java.lang.String))
(check-sat)
(pop)
(push)
(assert (not (= x2 java.lang.String)))
(check-sat)
(pop)
(pop)
(push)
(assert (not (= x4 java.lang.String)))
(check-sat)
(pop)
(push)
(assert (= x5 java.lang.StringBuffer))
(check-sat)
(pop)
(push)
(assert (not (= x5 java.lang.StringBuffer)))
(check-sat)
(pop)
(push)
(assert (le x7 java.io.DataInputStream))
(check-sat)
(pop)
(push)
(assert (not (le x7 java.io.DataInputStream)))
(check-sat)
(pop)
(pop)
(push)
(assert (= x3 java.lang.String))
(check-sat)
(pop)
(push)
(assert (not (= x3 java.lang.String)))
(check-sat)
(pop)
(push)
(assert (= x5 java.lang.String))
(check-sat)
(pop)
(push)
(assert (not (= x5 java.lang.String)))
(check-sat)
(pop)
(push)
(assert (= x7 java.lang.String))
(check-sat)
(pop)
(push)
(assert (not (= x7 java.lang.String)))
(check-sat)
(pop)
(push)
(assert (= x4 java.lang.String))
(check-sat)
(push)
(assert (le x7 java.io.DataInputStream))
(check-sat)
(pop)
(push)
(assert (not (le x7 java.io.DataInputStream)))
(check-sat)
(pop)
(pop)
(push)
(assert (not (= x4 java.lang.String)))
(check-sat)
(pop)
(push)
(assert (le x0 soot.tagkit.Tag))
(check-sat)
(push)
(assert (le x5 java.io.DataInputStream))
(check-sat)
(pop)
(push)
(assert (not (le x5 java.io.DataInputStream)))
(check-sat)
(pop)
(push)
(assert (= x6 java.lang.String))
(check-sat)
(pop)
(push)
(assert (not (= x6 java.lang.String)))
(check-sat)
(pop)
(push)
(assert (= x2 java.lang.String))
(check-sat)
(push)
(assert (le x5 java.util.zip.ZipEntry))
(check-sat)
(pop)
(push)
(assert (not (le x5 java.util.zip.ZipEntry)))
(check-sat)
(pop)
(pop)
(push)
(assert (not (= x2 java.lang.String)))
(check-sat)
(pop)
(pop)
(push)
(assert (not (le x0 soot.tagkit.Tag)))
(check-sat)
(pop)
(pop)
(push)
(assert (not (= x3 java.lang.String)))
(check-sat)
(pop)
(push)
(assert (= x6 java.lang.String))
(check-sat)
(push)
(assert (= x7 java.lang.String))
(check-sat)
(push)
(assert (= x2 java.lang.String))
(check-sat)
(pop)
(push)
(assert (not (= x2 java.lang.String)))
(check-sat)
(push)
(assert (= x4 java.lang.String))
(check-sat)
(pop)
(push)
(assert (not (= x4 java.lang.String)))
(check-sat)
(pop)
(pop)
(pop)
(push)
(assert (not (= x7 java.lang.String)))
(check-sat)
(pop)
(pop)
(push)
(assert (not (= x6 java.lang.String)))
(check-sat)
(push)
(assert (= x1 java.lang.String))
(check-sat)
(pop)
(push)
(assert (not (= x1 java.lang.String)))
(check-sat)
(pop)
(push)
(assert (= x3 java.lang.String))
(check-sat)
(pop)
(push)
(assert (not (= x3 java.lang.String)))
(check-sat)
(push)
(assert (le x2 java.util.zip.ZipEntry))
(check-sat)
(push)
(assert (= x4 java.lang.String))
(check-sat)
(pop)
(push)
(assert (not (= x4 java.lang.String)))
(check-sat)
(pop)
(pop)
(push)
(assert (not (le x2 java.util.zip.ZipEntry)))
(check-sat)
(pop)
(pop)
(push)
(assert (le x1 java.util.zip.ZipEntry))
(check-sat)
(pop)
(push)
(assert (not (le x1 java.util.zip.ZipEntry)))
(check-sat)
(push)
(assert (= x3 java.lang.String))
(check-sat)
(pop)
(push)
(assert (not (= x3 java.lang.String)))
(check-sat)
(pop)
(pop)
(push)
(assert (le x7 java.util.zip.ZipEntry))
(check-sat)
(pop)
(push)
(assert (not (le x7 java.util.zip.ZipEntry)))
(check-sat)
(push)
(assert (= x0 java.lang.String))
(check-sat)
(pop)
(push)
(assert (not (= x0 java.lang.String)))
(check-sat)
(pop)
(push)
(assert (= x4 java.lang.String))
(check-sat)
(pop)
(push)
(assert (not (= x4 java.lang.String)))
(check-sat)
(pop)
(pop)
(push)
(assert (le x2 java.util.zip.ZipEntry))
(check-sat)
(push)
(assert (= x1 java.lang.String))
(check-sat)
(pop)
(push)
(assert (not (= x1 java.lang.String)))
(check-sat)
(pop)
(pop)
(push)
(assert (not (le x2 java.util.zip.ZipEntry)))
(check-sat)
(pop)
(pop)
(push)
(assert (= x2 java.lang.String))
(check-sat)
(pop)
(push)
(assert (not (= x2 java.lang.String)))
(check-sat)
(push)
(assert (= x1 java.lang.String))
(check-sat)
(push)
(assert (= x3 java.lang.String))
(check-sat)
(push)
(assert (= x4 java.lang.String))
(check-sat)
(pop)
(push)
(assert (not (= x4 java.lang.String)))
(check-sat)
(pop)
(pop)
(push)
(assert (not (= x3 java.lang.String)))
(check-sat)
(pop)
(pop)
(push)
(assert (not (= x1 java.lang.String)))
(check-sat)
(push)
(assert (= x4 java.lang.String))
(check-sat)
(push)
(assert (= x5 java.lang.String))
(check-sat)
(pop)
(push)
(assert (not (= x5 java.lang.String)))
(check-sat)
(pop)
(push)
(assert (le x6 soot.coffi.method_info))
(check-sat)
(pop)
(push)
(assert (not (le x6 soot.coffi.method_info)))
(check-sat)
(pop)
(pop)
(push)
(assert (not (= x4 java.lang.String)))
(check-sat)
(pop)
(push)
(assert (= x0 java.lang.StringBuilder))
(check-sat)
(pop)
(push)
(assert (not (= x0 java.lang.StringBuilder)))
(check-sat)
(pop)
(push)
(assert (= x4 java.lang.String))
(check-sat)
(push)
(assert (le x7 soot.tagkit.Tag))
(check-sat)
(pop)
(push)
(assert (not (le x7 soot.tagkit.Tag)))
(check-sat)
(pop)
(push)
(assert (= x6 java.lang.String))
(check-sat)
(pop)
(push)
(assert (not (= x6 java.lang.String)))
(check-sat)
(pop)
(pop)
(push)
(assert (not (= x4 java.lang.String)))
(check-sat)
(pop)
(pop)
(push)
(assert (= x5 java.lang.String))
(check-sat)
(push)
(assert (le x6 java.io.File))
(check-sat)
(pop)
(push)
(assert (not (le x6 java.io.File)))
(check-sat)
(pop)
(pop)
(push)
(assert (not (= x5 java.lang.String)))
(check-sat)
(push)
(assert (= x1 java.lang.StringBuffer))
(check-sat)
(pop)
(push)
(assert (not (= x1 java.lang.StringBuffer)))
(check-sat)
(pop)
(pop)
(pop)
(push)
(assert (= x2 java.lang.String))
(check-sat)
(push)
(assert (le x3 java.io.File))
(check-sat)
(pop)
(push)
(assert (not (le x3 java.io.File)))
(check-sat)
(pop)
(pop)
(push)
(assert (not (= x2 java.lang.String)))
(check-sat)
(push)
(assert (= x0 java.lang.String))
(check-sat)
(pop)
(push)
(assert (not (= x0 java.lang.String)))
(check-sat)
(pop)
(push)
(assert (= x2 java.lang.String))
(check-sat)
(pop)
(push)
(assert (not (= x2 java.lang.String)))
(check-sat)
(pop)
(push)
(assert (le x1 java.util.zip.ZipEntry))
(check-sat)
(push)
(assert (le x1 java.util.zip.ZipEntry))
(check-sat)
(pop)
(push)
(assert (not (le x1 java.util.zip.ZipEntry)))
(check-sat)
(pop)
(push)
(assert (le x6 java.io.File))
(check-sat)
(pop)
(push)
(assert (not (le x6 java.io.File)))
(check-sat)
(pop)
(pop)
(push)
(assert (not (le x1 java.util.zip.ZipEntry)))
(check-sat)
(pop)
(push)
(assert (le x3 java.io.File))
(check-sat)
(push)
(assert (le x3 java.io.File))
(check-sat)
(pop)
(push)
(assert (not (le x3 java.io.File)))
(check-sat)
(pop)
(pop)
(push)
(assert (not (le x3 java.io.File)))
(check-sat)
(push)
(assert (= x7 java.lang.String))
(check-sat)
(pop)
(push)
(assert (not (= x7 java.lang.String)))
(check-sat)
(push)
(assert (le x3 java.io.File))
(check-sat)
(pop)
(push)
(assert (not (le x3 java.io.File)))
(check-sat)
(pop)
(pop)
(pop)
(push)
(assert (= x3 java.lang.String))
(check-sat)
(push)
(assert (= x3 java.lang.String))
(check-sat)
(pop)
(push)
(assert (not (= x3 java.lang.String)))
(check-sat)
(pop)
(push)
(assert (= x3 java.lang.String))
(check-sat)
(pop)
(push)
(assert (not (= x3 java.lang.String)))
(check-sat)
(pop)
(pop)
(push)
(assert (not (= x3 java.lang.String)))
(check-sat)
(pop)
(push)
(assert (= x1 java.lang.String))
(check-sat)
(push)
(assert (le x3 java.util.List))
(check-sat)
(pop)
(push)
(assert (not (le x3 java.util.List)))
(check-sat)
(push)
(assert (= x2 java.lang.String))
(check-sat)
(pop)
(push)
(assert (not (= x2 java.lang.String)))
(check-sat)
(pop)
(pop)
(push)
(assert (= x1 java.lang.String))
(check-sat)
(pop)
(push)
(assert (not (= x1 java.lang.String)))
(check-sat)
(pop)
(pop)
(push)
(assert (not (= x1 java.lang.String)))
(check-sat)
(pop)
(pop)
(push)
(assert (le x7 java.util.zip.ZipEntry))
(check-sat)
(push)
(assert (le x0 soot.util.HashChain_currencysign_Link))
(check-sat)
(pop)
(push)
(assert (not (le x0 soot.util.HashChain_currencysign_Link)))
(check-sat)
(push)
(assert (le x1 java.util.zip.ZipEntry))
(check-sat)
(pop)
(push)
(assert (not (le x1 java.util.zip.ZipEntry)))
(check-sat)
(push)
(assert (le x3 java.util.zip.ZipEntry))
(check-sat)
(pop)
(push)
(assert (not (le x3 java.util.zip.ZipEntry)))
(check-sat)
(pop)
(push)
(assert (le x0 java.util.Map))
(check-sat)
(pop)
(push)
(assert (not (le x0 java.util.Map)))
(check-sat)
(pop)
(pop)
(push)
(assert (= x5 java.lang.String))
(check-sat)
(pop)
(push)
(assert (not (= x5 java.lang.String)))
(check-sat)
(pop)
(pop)
(pop)
(push)
(assert (not (le x7 java.util.zip.ZipEntry)))
(check-sat)
(push)
(assert (= x1 java.lang.String))
(check-sat)
(pop)
(push)
(assert (not (= x1 java.lang.String)))
(check-sat)
(push)
(assert (= x0 java.lang.String))
(check-sat)
(pop)
(push)
(assert (not (= x0 java.lang.String)))
(check-sat)
(pop)
(pop)
(pop)
(push)
(assert (= x4 java.lang.String))
(check-sat)
(pop)
(push)
(assert (not (= x4 java.lang.String)))
(check-sat)
(pop)
(push)
(assert (= x3 java.lang.String))
(check-sat)
(push)
(assert (le x2 java.io.File))
(check-sat)
(push)
(assert (le x0 java.io.DataInputStream))
(check-sat)
(push)
(assert (le x6 soot.MethodSource))
(check-sat)
(pop)
(push)
(assert (not (le x6 soot.MethodSource)))
(check-sat)
(pop)
(push)
(assert (= x7 java.lang.StringBuilder))
(check-sat)
(pop)
(push)
(assert (not (= x7 java.lang.StringBuilder)))
(check-sat)
(pop)
(pop)
(push)
(assert (not (le x0 java.io.DataInputStream)))
(check-sat)
(pop)
(push)
(assert (le x7 java.lang.Object))
(check-sat)
(pop)
(push)
(assert (not (le x7 java.lang.Object)))
(check-sat)
(pop)
(pop)
(push)
(assert (not (le x2 java.io.File)))
(check-sat)
(pop)
(pop)
(push)
(assert (not (= x3 java.lang.String)))
(check-sat)
(push)
(assert (= x6 java.lang.String))
(check-sat)
(push)
(assert (le x2 java.io.File))
(check-sat)
(pop)
(push)
(assert (not (le x2 java.io.File)))
(check-sat)
(pop)
(pop)
(push)
(assert (not (= x6 java.lang.String)))
(check-sat)
(pop)
(push)
(assert (le x7 java.io.File))
(check-sat)
(pop)
(push)
(assert (not (le x7 java.io.File)))
(check-sat)
(pop)
(pop)
(push)
(assert (le x3 java.util.zip.ZipEntry))
(check-sat)
(push)
(assert (le x3 java.util.zip.ZipEntry))
(check-sat)
(push)
(assert (le x0 java.util.zip.ZipEntry))
(check-sat)
(pop)
(push)
(assert (not (le x0 java.util.zip.ZipEntry)))
(check-sat)
(pop)
(pop)
(push)
(assert (not (le x3 java.util.zip.ZipEntry)))
(check-sat)
(pop)
(push)
(assert (le x0 java.io.File))
(check-sat)
(pop)
(push)
(assert (not (le x0 java.io.File)))
(check-sat)
(push)
(assert (le x0 java.io.File))
(check-sat)
(pop)
(push)
(assert (not (le x0 java.io.File)))
(check-sat)
(pop)
(pop)
(push)
(assert (le x3 java.util.zip.ZipEntry))
(check-sat)
(push)
(assert (= x0 java.lang.StringBuilder))
(check-sat)
(pop)
(push)
(assert (not (= x0 java.lang.StringBuilder)))
(check-sat)
(pop)
(pop)
(push)
(assert (not (le x3 java.util.zip.ZipEntry)))
(check-sat)
(pop)
(pop)
(push)
(assert (not (le x3 java.util.zip.ZipEntry)))
(check-sat)
(push)
(assert (le x2 soot.coffi.CONSTANT_Utf8_info))
(check-sat)
(pop)
(push)
(assert (not (le x2 soot.coffi.CONSTANT_Utf8_info)))
(check-sat)
(push)
(assert (le x2 soot.coffi.CONSTANT_Utf8_info))
(check-sat)
(pop)
(push)
(assert (not (le x2 soot.coffi.CONSTANT_Utf8_info)))
(check-sat)
(pop)
(pop)
(pop)
(pop)
(push)
(assert (not (= x4 java.lang.String)))
(check-sat)
(push)
(assert (le x2 java.io.File))
(check-sat)
(push)
(assert (= x5 java.lang.String))
(check-sat)
(pop)
(push)
(assert (not (= x5 java.lang.String)))
(check-sat)
(pop)
(pop)
(push)
(assert (not (le x2 java.io.File)))
(check-sat)
(push)
(assert (= x5 java.lang.String))
(check-sat)
(pop)
(push)
(assert (not (= x5 java.lang.String)))
(check-sat)
(push)
(assert (= x5 java.lang.String))
(check-sat)
(pop)
(push)
(assert (not (= x5 java.lang.String)))
(check-sat)
(pop)
(pop)
(push)
(assert (le x5 soot.MethodSource))
(check-sat)
(push)
(assert (= x3 java.lang.String))
(check-sat)
(pop)
(push)
(assert (not (= x3 java.lang.String)))
(check-sat)
(pop)
(push)
(assert (= x1 java.lang.String))
(check-sat)
(push)
(assert (le x3 soot.toolkits.scalar.FlowSet))
(check-sat)
(pop)
(push)
(assert (not (le x3 soot.toolkits.scalar.FlowSet)))
(check-sat)
(pop)
(pop)
(push)
(assert (not (= x1 java.lang.String)))
(check-sat)
(pop)
(pop)
(push)
(assert (not (le x5 soot.MethodSource)))
(check-sat)
(pop)
(push)
(assert (le x5 java.io.File))
(check-sat)
(pop)
(push)
(assert (not (le x5 java.io.File)))
(check-sat)
(pop)
(pop)
(pop)
